\* Problem: Cyka *\

Maximize
 blyat: - 1.31000006198883 x1 + 1.70000004768372 x2
 + 0.289999961853027 x3 + 1.70000004768372 x4 + 0.100000023841858 x5
 + 1.70000004768372 x6

Subject To
 c1: 0 x1 = 0
 c2: 0 x1 = 0
 c3: 0 x1 = 0
 c4: 0 x1 = 0
 c5: + x6 + x5 + x4 + x3 + x2 + x1 = 0
 c6: + x6 + x5 + x4 + x3 + x2 + x1 = 0

Bounds
 0 <= x1 <= 1
 0 <= x2 <= 1
 0 <= x3 <= 1
 0 <= x4 <= 1
 0 <= x5 <= 1
 0 <= x6 <= 1

Generals
 x1
 x2
 x3
 x4
 x5
 x6

End
